peakDumbCharging = 18500; 
Machine = anon_enum(16); 
machineSpeed = [3700,3700,3700,3700,3700,3700,3700,3700,3700,3700,3700,3700,3700,3700,3700,3700]; 
machineLoad = [3700,3700,3700,3700,3700,3700,3700,3700,3700,3700,3700,3700,3700,3700,3700,3700]; 
Car = anon_enum(21); 
demandCar = [15760,7640,7760,24480,2440,18440,5920,12040,6520,4440,14240,36040,23600,37360,5360,11360,6000,4160,14760,14240,33400]; 
arrivalCar = [79,77,73,67,66,66,65,61,60,58,57,51,46,46,44,41,40,39,37,34,32]; 
departureCar = [84,80,76,75,68,72,68,66,62,61,63,66,54,63,47,46,44,42,42,41,59]; 
